1831408.0
1316
0 2 3 4 5 6 7 8 9 10 11 12 13 16 17 19 21 22 25 26 28 29 31 32 33 34 35 36 37 39 40 41 42 44 45 47 48 49 50 52 53 55 58 61 63 64 65 66 67 68 69 70 71 72 73 74 75 76 77 78 79 82 83 84 85 86 87 88 89 90 92 93 94 95 98 99 